NAME: tsp15_6
COMMENT: 15-tsp problem (Padberg/Rinaldi)
TYPE: TSP
DIMENSION: 15
EDGE_WEIGHT_TYPE : EUC_2D
NODE_COORD_SECTION
1 18 6
2 31 37
3 4 31
4 35 2
5 40 16
6 15 27
7 31 36
8 39 23
9 1 10
10 38 10
11 2 21
12 38 25
13 33 38
14 20 10
15 12 20
